NAME : portgen-15-1979
COMMENT : portgen N=15, seed=1979
TYPE : TSP
DIMENSION : 15
EDGE_WEIGHT_TYPE : EUC_2D
NODE_COORD_SECTION
1 412 854
2 178 192
3 155 471
4 906 945
5 823 23
6 177 611
7 715 805
8 170 244
9 404 840
10 415 90
11 53 613
12 846 683
13 409 481
14 923 629
15 334 147
